sat
(:max-memory         18.11
 :memory             17.99
 :nlsat-propagations 8
 :nlsat-stages       4
 :num-allocs         6831
 :rlimit-count       3567
 :time               0.00
 :total-time         0.01)
